% File represents an instance of a Composite Structure problem to be solved by a CP framework
% Created on 2025-03-26 10:41:20.942
T = 50;
n = 16;
m = 24;
edges = [(1, 2),
(6, 5),
(9, 10),
(13, 14),
(2, 3),
(6, 7),
(10, 11),
(14, 15),
(4, 3),
(7, 8),
(12, 11),
(16, 15),
(1, 5),
(9, 5),
(13, 9),
(6, 2),
(6, 10),
(14, 10),
(7, 3),
(7, 11),
(15, 11),
(4, 8),
(12, 8),
(16, 12)];
counts = [|12, 10, 12, 8,
|12, 10, 12, 2,
|12, 8, 12, 2,
|14, 8, 14, 2,
|12, 8, 12, 8,
|12, 10, 12, 8,
|12, 10, 12, 2,
|12, 8, 12, 2,
|12, 12, 12, 8,
|12, 8, 12, 6,
|12, 6, 12, 2,
|12, 10, 12, 2,
|14, 14, 14, 8,
|12, 14, 12, 6,
|12, 12, 12, 2,
|12, 16, 12, 2|];
